238
400
280	3
279	1
278	8
277	2
276	5
275	3
274	9
273	5
272	4
271	5
270	5
269	11
268	6
267	2
266	3
265	4
264	7
263	9
262	4
261	1
260	3
259	5
258	1
257	5
256	3
255	3
254	4
253	3
252	4
251	6
250	6
249	2
248	2
247	5
246	4
245	5
244	9
243	3
242	5
241	4
240	2
239	2
238	4
237	2
236	1
234	3
233	4
232	6
231	2
230	7
229	3
227	2
226	6
225	7
224	5
223	5
222	3
221	3
220	2
219	4
218	8
217	5
216	6
215	2
214	8
213	2
212	7
211	7
210	2
209	2
208	9
207	5
206	4
205	6
204	4
203	3
202	3
201	1
200	7
199	4
198	6
197	3
196	4
195	4
194	6
193	5
192	5
191	6
190	4
189	4
188	4
187	5
186	6
185	4
184	6
183	2
182	4
181	3
180	1
179	4
178	7
177	2
176	4
175	4
174	3
173	3
172	4
171	5
170	2
169	2
168	5
167	4
166	3
165	3
164	8
163	2
162	6
161	6
160	3
159	2
158	4
157	4
156	7
155	4
154	2
153	4
152	3
151	5
150	3
149	5
148	6
147	4
146	4
145	2
144	5
143	2
142	4
141	2
140	2
139	2
138	4
137	3
136	2
135	3
133	5
132	3
131	2
130	5
129	6
128	5
127	4
126	1
125	2
124	3
123	8
122	3
121	4
120	2
119	6
118	5
117	1
116	11
115	3
114	5
113	3
112	3
111	4
110	7
109	5
108	5
107	1
106	4
105	5
104	7
103	3
102	4
101	5
100	5
99	6
98	3
97	2
96	7
95	10
94	7
93	2
92	4
91	3
90	4
89	7
88	2
87	5
86	6
85	6
84	6
83	4
82	1
81	4
80	4
79	4
78	4
77	4
76	7
75	3
74	2
73	8
72	2
71	4
70	4
69	3
68	2
67	8
66	6
65	3
64	4
63	3
62	3
61	3
60	1
59	4
58	3
57	5
56	2
55	2
54	4
53	9
52	5
51	2
50	5
49	7
48	6
47	4
46	4
45	2
44	6
43	6
42	4
41	1
40	6
